30	100	100	100
16	70	100
39	31	100
85	59	100
46	48	100
84	12	100
39	51	100
59	56	100
78	50	100
30	51	100
80	76	100
88	20	100
13	20	100
56	96	100
51	96	100
80	5	100
56	46	100
15	49	100
28	15	100
82	21	100
41	40	100
94	63	100
11	86	100
34	84	100
14	6	100
72	99	100
61	42	100
32	56	100
69	20	100
32	3	100
47	54	100
